22      4       
14      15      12      17      
0       0       0       0       0       3       2       3       4       
4       8       7       4       9       3       6       8       10      
5       6       0       0       0       2       5       18      
3       0       3       0       6       1       15      
6       9       0       9       0       2       8       9       
9       0       6       0       10      1       7       
5       10      0       0       0       1       15      
4       5       0       8       5       3       11      16      20      
5       0       0       0       6       2       13      17      
1       5       0       0       0       3       12      17      21      
3       0       0       8       0       1       21      
10      0       0       2       0       2       14      19      
2       4       1       3       5       1       16      
2       4       0       2       2       1       15      
2       0       0       0       6       1       18      
9       10      9       0       9       1       21      
7       0       0       0       8       1       19      
3       0       0       10      6       1       20      
7       3       10      4       0       1       22      
1       0       0       4       10      1       22      
7       5       0       7       5       1       22      
0       0       0       0       0       0       